units           real
atom_style      full
pair_style      lj/cut/coul/cut 10.0 13.4
bond_style      harmonic
angle_style     harmonic
dihedral_style  opls
special_bonds   lj/coul 0 0 0.5
improper_style  cvff
pair_modify mix geometric
dielectric 4.9
read_data       ./lammps_files_ligpargen/Methylthiophene_Phi_5_Theta_280_Methylthiophene.lmp
timestep 1.0
thermo 1
thermo_style multi
neighbor 2.0 bin
run_style verlet
run 0
